p cnf 123 430
4 5 6 7 0
8 9 10 11 0
12 13 14 15 0
16 17 18 19 0
20 21 22 23 0
24 25 26 27 0
28 29 30 31 0
32 33 34 35 0
36 37 38 39 0
40 41 42 43 0
44 45 46 47 0
48 49 50 51 0
52 53 54 55 0
56 57 58 59 0
60 61 62 63 0
64 65 66 67 0
68 69 70 71 0
72 73 74 75 0
76 77 78 79 0
80 81 82 83 0
84 85 86 87 0
88 89 90 91 0
92 93 94 95 0
96 97 98 99 0
100 101 102 103 0
104 105 106 107 0
108 109 110 111 0
112 113 114 115 0
116 117 118 119 0
120 121 122 123 0
-4 -8 0
-5 -9 0
-6 -10 0
-7 -11 0
-4 -44 0
-5 -45 0
-6 -46 0
-7 -47 0
-4 -16 0
-5 -17 0
-6 -18 0
-7 -19 0
-4 -52 0
-5 -53 0
-6 -54 0
-7 -55 0
-8 -40 0
-9 -41 0
-10 -42 0
-11 -43 0
-8 -12 0
-9 -13 0
-10 -14 0
-11 -15 0
-8 -48 0
-9 -49 0
-10 -50 0
-11 -51 0
-12 -24 0
-13 -25 0
-14 -26 0
-15 -27 0
-12 -32 0
-13 -33 0
-14 -34 0
-15 -35 0
-12 -44 0
-13 -45 0
-14 -46 0
-15 -47 0
-12 -60 0
-13 -61 0
-14 -62 0
-15 -63 0
-12 -68 0
-13 -69 0
-14 -70 0
-15 -71 0
-16 -20 0
-17 -21 0
-18 -22 0
-19 -23 0
-16 -32 0
-17 -33 0
-18 -34 0
-19 -35 0
-16 -40 0
-17 -41 0
-18 -42 0
-19 -43 0
-16 -56 0
-17 -57 0
-18 -58 0
-19 -59 0
-16 -68 0
-17 -69 0
-18 -70 0
-19 -71 0
-20 -28 0
-21 -29 0
-22 -30 0
-23 -31 0
-20 -36 0
-21 -37 0
-22 -38 0
-23 -39 0
-20 -52 0
-21 -53 0
-22 -54 0
-23 -55 0
-20 -64 0
-21 -65 0
-22 -66 0
-23 -67 0
-20 -72 0
-21 -73 0
-22 -74 0
-23 -75 0
-24 -28 0
-25 -29 0
-26 -30 0
-27 -31 0
-24 -36 0
-25 -37 0
-26 -38 0
-27 -39 0
-24 -48 0
-25 -49 0
-26 -50 0
-27 -51 0
-24 -64 0
-25 -65 0
-26 -66 0
-27 -67 0
-24 -72 0
-25 -73 0
-26 -74 0
-27 -75 0
-28 -32 0
-29 -33 0
-30 -34 0
-31 -35 0
-28 -36 0
-29 -37 0
-30 -38 0
-31 -39 0
-28 -56 0
-29 -57 0
-30 -58 0
-31 -59 0
-28 -60 0
-29 -61 0
-30 -62 0
-31 -63 0
-28 -68 0
-29 -69 0
-30 -70 0
-31 -71 0
-28 -72 0
-29 -73 0
-30 -74 0
-31 -75 0
-32 -36 0
-33 -37 0
-34 -38 0
-35 -39 0
-32 -48 0
-33 -49 0
-34 -50 0
-35 -51 0
-32 -52 0
-33 -53 0
-34 -54 0
-35 -55 0
-32 -64 0
-33 -65 0
-34 -66 0
-35 -67 0
-32 -72 0
-33 -73 0
-34 -74 0
-35 -75 0
-36 -56 0
-37 -57 0
-38 -58 0
-39 -59 0
-36 -60 0
-37 -61 0
-38 -62 0
-39 -63 0
-36 -64 0
-37 -65 0
-38 -66 0
-39 -67 0
-36 -68 0
-37 -69 0
-38 -70 0
-39 -71 0
-40 -80 0
-41 -81 0
-42 -82 0
-43 -83 0
-40 -88 0
-41 -89 0
-42 -90 0
-43 -91 0
-40 -116 0
-41 -117 0
-42 -118 0
-43 -119 0
-44 -76 0
-45 -77 0
-46 -78 0
-47 -79 0
-44 -84 0
-45 -85 0
-46 -86 0
-47 -87 0
-44 -116 0
-45 -117 0
-46 -118 0
-47 -119 0
-48 -80 0
-49 -81 0
-50 -82 0
-51 -83 0
-48 -96 0
-49 -97 0
-50 -98 0
-51 -99 0
-48 -104 0
-49 -105 0
-50 -106 0
-51 -107 0
-48 -116 0
-49 -117 0
-50 -118 0
-51 -119 0
-52 -76 0
-53 -77 0
-54 -78 0
-55 -79 0
-52 -92 0
-53 -93 0
-54 -94 0
-55 -95 0
-52 -104 0
-53 -105 0
-54 -106 0
-55 -107 0
-52 -116 0
-53 -117 0
-54 -118 0
-55 -119 0
-56 -88 0
-57 -89 0
-58 -90 0
-59 -91 0
-56 -100 0
-57 -101 0
-58 -102 0
-59 -103 0
-56 -108 0
-57 -109 0
-58 -110 0
-59 -111 0
-56 -116 0
-57 -117 0
-58 -118 0
-59 -119 0
-60 -84 0
-61 -85 0
-62 -86 0
-63 -87 0
-60 -100 0
-61 -101 0
-62 -102 0
-63 -103 0
-60 -108 0
-61 -109 0
-62 -110 0
-63 -111 0
-60 -116 0
-61 -117 0
-62 -118 0
-63 -119 0
-64 -92 0
-65 -93 0
-66 -94 0
-67 -95 0
-64 -96 0
-65 -97 0
-66 -98 0
-67 -99 0
-64 -104 0
-65 -105 0
-66 -106 0
-67 -107 0
-64 -108 0
-65 -109 0
-66 -110 0
-67 -111 0
-64 -116 0
-65 -117 0
-66 -118 0
-67 -119 0
-68 -84 0
-69 -85 0
-70 -86 0
-71 -87 0
-68 -88 0
-69 -89 0
-70 -90 0
-71 -91 0
-68 -100 0
-69 -101 0
-70 -102 0
-71 -103 0
-68 -108 0
-69 -109 0
-70 -110 0
-71 -111 0
-68 -116 0
-69 -117 0
-70 -118 0
-71 -119 0
-72 -92 0
-73 -93 0
-74 -94 0
-75 -95 0
-72 -96 0
-73 -97 0
-74 -98 0
-75 -99 0
-72 -100 0
-73 -101 0
-74 -102 0
-75 -103 0
-72 -104 0
-73 -105 0
-74 -106 0
-75 -107 0
-72 -116 0
-73 -117 0
-74 -118 0
-75 -119 0
-76 -112 0
-77 -113 0
-78 -114 0
-79 -115 0
-76 -120 0
-77 -121 0
-78 -122 0
-79 -123 0
-80 -112 0
-81 -113 0
-82 -114 0
-83 -115 0
-80 -120 0
-81 -121 0
-82 -122 0
-83 -123 0
-84 -112 0
-85 -113 0
-86 -114 0
-87 -115 0
-84 -120 0
-85 -121 0
-86 -122 0
-87 -123 0
-88 -112 0
-89 -113 0
-90 -114 0
-91 -115 0
-88 -120 0
-89 -121 0
-90 -122 0
-91 -123 0
-92 -112 0
-93 -113 0
-94 -114 0
-95 -115 0
-92 -120 0
-93 -121 0
-94 -122 0
-95 -123 0
-96 -112 0
-97 -113 0
-98 -114 0
-99 -115 0
-96 -120 0
-97 -121 0
-98 -122 0
-99 -123 0
-100 -112 0
-101 -113 0
-102 -114 0
-103 -115 0
-100 -120 0
-101 -121 0
-102 -122 0
-103 -123 0
-104 -112 0
-105 -113 0
-106 -114 0
-107 -115 0
-104 -120 0
-105 -121 0
-106 -122 0
-107 -123 0
-108 -112 0
-109 -113 0
-110 -114 0
-111 -115 0
-108 -120 0
-109 -121 0
-110 -122 0
-111 -123 0
-112 -116 0
-113 -117 0
-114 -118 0
-115 -119 0
-112 -120 0
-113 -121 0
-114 -122 0
-115 -123 0
-116 -120 0
-117 -121 0
-118 -122 0
-119 -123 0
